c turning on binary mode checking
c parsing input formula with 259840 variables and 1039924 clauses
c finished parsing, read 23225910 bytes from proof file
c detected empty clause; start verification via backward checking
c 5527 of 1039924 clauses in core                            
c 7658 of 604227 lemmas in core using 66666 resolution steps
c 0 RAT lemmas in core; 471 redundant literals in core lemmas
s VERIFIED
c verification time: 2.514 seconds
